Using license file /home/benedond/gurobi.lic
Using gurobi.env file
Set parameter Threads to value 1
Academic license - for non-commercial use only
Changed value of parameter TimeLimit to 300.0
   Prev: inf  Min: 0.0  Max: inf  Default: inf
Gurobi Optimizer version 9.0.1 build v9.0.1rc0 (linux64)
Optimize a model with 14700 rows, 7320 columns and 57838 nonzeros
Model fingerprint: 0xbdafb35d
Variable types: 60 continuous, 7260 integer (7200 binary)
Coefficient statistics:
  Matrix range     [2e-01, 9e+03]
  Objective range  [4e-04, 1e-01]
  Bounds range     [1e+00, 1e+00]
  RHS range        [1e+00, 9e+03]

---------------------------------------------------------------------------
Multi-objectives: starting optimization with 1 objectives ... 
---------------------------------------------------------------------------
---------------------------------------------------------------------------

Multi-objectives: optimize objective 1 (min avg power cons) ...
---------------------------------------------------------------------------

Optimize a model with 14700 rows, 7320 columns and 57838 nonzeros
Variable types: 60 continuous, 7260 integer (7200 binary)
Coefficient statistics:
  Matrix range     [2e-01, 9e+03]
  Objective range  [4e-04, 1e-01]
  Bounds range     [1e+00, 1e+00]
  RHS range        [1e+00, 9e+03]
Presolve removed 2870 rows and 1435 columns
Presolve time: 0.82s
Presolved: 11830 rows, 5885 columns, 46358 nonzeros
Variable types: 60 continuous, 5825 integer (5765 binary)

Root relaxation: objective 1.566512e+00, 1608 iterations, 0.17 seconds

    Nodes    |    Current Node    |     Objective Bounds      |     Work
 Expl Unexpl |  Obj  Depth IntInf | Incumbent    BestBd   Gap | It/Node Time

     0     0    1.56651    0  149          -    1.56651      -     -    7s
H    0     0                       4.2792460    1.56651  63.4%     -    8s
H    0     0                       3.8144682    1.56651  58.9%     -   13s
     0     0    1.56651    0  162    3.81447    1.56651  58.9%     -   14s
     0     0    1.56651    0  143    3.81447    1.56651  58.9%     -   17s
H    0     0                       3.6946627    1.56651  57.6%     -   18s
     0     0    1.56651    0  185    3.69466    1.56651  57.6%     -   18s
     0     0    1.56651    0  179    3.69466    1.56651  57.6%     -   18s
     0     0    1.65918    0  151    3.69466    1.65918  55.1%     -   18s
     0     0    1.66556    0  168    3.69466    1.66556  54.9%     -   18s
     0     0    1.69558    0  179    3.69466    1.69558  54.1%     -   19s
     0     0    1.69806    0  174    3.69466    1.69806  54.0%     -   19s
     0     0    1.73076    0  227    3.69466    1.73076  53.2%     -   19s
     0     0    1.73171    0  213    3.69466    1.73171  53.1%     -   19s
     0     0    1.76271    0  200    3.69466    1.76271  52.3%     -   20s
     0     0    1.76499    0  202    3.69466    1.76499  52.2%     -   20s
     0     0    1.81319    0  179    3.69466    1.81319  50.9%     -   20s
     0     0    1.81604    0  169    3.69466    1.81604  50.8%     -   20s
     0     0    1.82959    0  220    3.69466    1.82959  50.5%     -   20s
     0     0    1.83069    0  234    3.69466    1.83069  50.5%     -   21s
     0     0    1.84081    0  190    3.69466    1.84081  50.2%     -   21s
     0     0    1.84128    0  213    3.69466    1.84128  50.2%     -   21s
     0     0    1.85742    0  277    3.69466    1.85742  49.7%     -   21s
     0     0    1.85814    0  273    3.69466    1.85814  49.7%     -   21s
     0     0    1.86435    0  273    3.69466    1.86435  49.5%     -   22s
     0     0    1.86515    0  283    3.69466    1.86515  49.5%     -   22s
     0     0    1.87078    0  327    3.69466    1.87078  49.4%     -   22s
     0     0    1.87230    0  342    3.69466    1.87230  49.3%     -   22s
     0     0    1.87943    0  500    3.69466    1.87943  49.1%     -   23s
     0     0    1.88223    0  360    3.69466    1.88223  49.1%     -   23s
     0     0    1.89065    0  404    3.69466    1.89065  48.8%     -   24s
     0     0    1.89213    0  409    3.69466    1.89213  48.8%     -   24s
     0     0    1.89743    0  358    3.69466    1.89743  48.6%     -   24s
     0     0    1.89919    0  381    3.69466    1.89919  48.6%     -   24s
     0     0    1.89959    0  390    3.69466    1.89959  48.6%     -   24s
     0     0    1.89985    0  427    3.69466    1.89985  48.6%     -   24s
     0     0    1.90001    0  400    3.69466    1.90001  48.6%     -   24s
     0     0    1.90011    0  400    3.69466    1.90011  48.6%     -   24s
     0     0    1.90388    0  400    3.69466    1.90388  48.5%     -   25s
     0     0    1.90472    0  406    3.69466    1.90472  48.4%     -   25s
     0     0    1.90493    0  414    3.69466    1.90493  48.4%     -   25s
     0     0    1.90515    0  410    3.69466    1.90515  48.4%     -   25s
     0     0    1.90517    0  416    3.69466    1.90517  48.4%     -   25s
     0     0    1.90692    0  415    3.69466    1.90692  48.4%     -   25s
H    0     0                       3.5683254    1.90692  46.6%     -   27s
     0     0    1.90790    0  397    3.56833    1.90790  46.5%     -   27s
     0     0    1.90818    0  378    3.56833    1.90818  46.5%     -   27s
     0     0    1.90827    0  419    3.56833    1.90827  46.5%     -   27s
     0     0    1.91092    0  402    3.56833    1.91092  46.4%     -   27s
     0     0    1.91174    0  461    3.56833    1.91174  46.4%     -   28s
     0     0    1.91226    0  430    3.56833    1.91226  46.4%     -   28s
     0     0    1.91248    0  440    3.56833    1.91248  46.4%     -   28s
     0     0    1.91253    0  447    3.56833    1.91253  46.4%     -   28s
     0     0    1.91655    0  434    3.56833    1.91655  46.3%     -   28s
     0     0    1.91677    0  442    3.56833    1.91677  46.3%     -   28s
     0     0    1.91694    0  463    3.56833    1.91694  46.3%     -   28s
     0     0    1.91704    0  480    3.56833    1.91704  46.3%     -   28s
     0     0    1.91903    0  405    3.56833    1.91903  46.2%     -   29s
     0     0    1.91948    0  446    3.56833    1.91948  46.2%     -   29s
     0     0    1.91975    0  444    3.56833    1.91975  46.2%     -   29s
     0     0    1.91984    0  447    3.56833    1.91984  46.2%     -   29s
     0     0    1.92159    0  469    3.56833    1.92159  46.1%     -   29s
     0     0    1.92210    0  459    3.56833    1.92210  46.1%     -   30s
     0     0    1.92243    0  479    3.56833    1.92243  46.1%     -   30s
     0     0    1.92249    0  485    3.56833    1.92249  46.1%     -   30s
     0     0    1.92324    0  543    3.56833    1.92324  46.1%     -   30s
     0     0    1.92357    0  556    3.56833    1.92357  46.1%     -   30s
     0     0    1.92365    0  548    3.56833    1.92365  46.1%     -   30s
     0     0    1.92461    0  467    3.56833    1.92461  46.1%     -   31s
     0     0    1.92479    0  427    3.56833    1.92479  46.1%     -   31s
     0     0    1.92491    0  457    3.56833    1.92491  46.1%     -   31s
     0     0    1.92577    0  458    3.56833    1.92577  46.0%     -   31s
     0     0    1.92577    0  454    3.56833    1.92577  46.0%     -   31s
     0     2    1.92584    0  454    3.56833    1.92584  46.0%     -   32s
    16    18    1.93971   11  394    3.56833    1.92837  46.0%   770   35s
H   27    27                       3.5214127    1.92837  45.2%   833   38s
H   54    52                       3.4723492    1.92837  44.5%   534   40s
H   81    75                       3.4230873    1.92837  43.7%   368   42s
   136   122    2.11645    5  347    3.42309    1.92877  43.7%   260   45s
H  156   140                       3.4069643    1.92877  43.4%   284   47s
   195   181    2.34644   52  230    3.40696    1.92877  43.4%   294   50s
H  204   188                       3.3885516    1.92877  43.1%   305   52s
   292   278    2.63469  137  155    3.38855    1.92877  43.1%   294   55s
H  428   388                       3.3630397    1.92877  42.6%   222   57s
   451   413    2.17368   25  390    3.36304    1.92904  42.6%   243   60s
H  455   415                       3.3536111    1.92904  42.5%   242   60s
H  510   471                       3.3346349    1.92904  42.2%   229   67s
   511   472    2.14284   41  162    3.33463    1.92904  42.2%   228   70s
H  512   449                       3.2742619    1.92904  41.1%   228   72s
   520   454    2.08268   18  434    3.27426    1.92904  41.1%   224   75s
   529   460    2.44986  103  443    3.27426    1.93418  40.9%   220   81s
H  530   437                       3.2153214    1.93425  39.8%   220   84s
   532   440    1.93437   14  427    3.21532    1.93437  39.8%   256   86s
   534   441    1.93553   15  419    3.21532    1.93553  39.8%   260   90s
   537   443    2.06333   16  196    3.21532    1.93567  39.8%   270   95s
   543   447    1.94946   19  402    3.21532    1.93762  39.7%   279  100s
   550   452    1.94245   23  406    3.21532    1.93845  39.7%   293  105s
   558   457    1.95154   27  399    3.21532    1.94748  39.4%   306  112s
   562   460    1.95479   29  373    3.21532    1.94947  39.4%   314  115s
   569   465    2.00619   32  357    3.21532    1.94947  39.4%   326  120s
   577   470    2.06297   36  284    3.21532    1.94947  39.4%   333  125s
   589   478    2.04290   42  310    3.21532    1.94947  39.4%   344  130s
H  591   455                       3.2089921    1.94947  39.2%   343  133s
   597   461    2.00275   46  313    3.20899    1.94947  39.2%   345  135s
   620   477    2.00037   58  313    3.20899    1.94947  39.2%   357  140s
   635   487    2.12702   65  317    3.20899    1.94947  39.2%   375  145s
   655   500    2.51516   75  244    3.20899    1.94947  39.2%   390  150s
   669   509    2.26083   82  284    3.20899    1.94947  39.2%   398  155s
H  688   499                       3.2050198    1.94947  39.2%   409  162s
   703   510    2.35019   99  241    3.20502    1.94947  39.2%   413  165s
   745   536    2.25416  120  226    3.20502    1.94947  39.2%   415  170s
H  747   515                       3.2016706    1.94947  39.1%   414  170s
   772   534    2.20867  134  215    3.20167    1.94947  39.1%   413  175s
H  774   514                       3.2005079    1.94947  39.1%   413  176s
   783   522    2.36045  139  213    3.20051    1.94947  39.1%   415  180s
   807   536    2.35924  151  199    3.20051    1.94947  39.1%   411  185s
   849   564    2.57628  172  209    3.20051    1.94947  39.1%   407  190s
H  910   575                       3.1888770    1.94947  38.9%   389  193s
   993   591    3.07420  244  105    3.18888    1.94947  38.9%   360  196s
  1007   588    1.97613   21  421    3.18888    1.94958  38.9%   360  200s
  1019   596    2.25083   27  222    3.18888    1.94958  38.9%   371  205s
  1033   605    2.34397   34  344    3.18888    1.94958  38.9%   379  210s
  1043   612    2.16511   39  323    3.18888    1.94958  38.9%   384  215s
  1058   622    2.06596   47  356    3.18888    1.94958  38.9%   390  220s
  1076   634    2.07912   56  330    3.18888    1.94958  38.9%   396  225s
  1099   649    2.33568   67  289    3.18888    1.94958  38.9%   403  230s
H 1101   626                       3.1749484    1.94958  38.6%   403  231s
  1120   641    2.22056   78  274    3.17495    1.94958  38.6%   409  235s
  1147   659    2.43154   91  187    3.17495    1.94958  38.6%   414  240s
  1181   680    2.42761  108  213    3.17495    1.94958  38.6%   418  245s
H 1182   661                       3.1702064    1.94958  38.5%   418  246s
  1209   681    2.52561  122  230    3.17021    1.94958  38.5%   419  250s
  1236   699    2.35037  136  247    3.17021    1.94958  38.5%   419  255s
  1263   717    2.51375  149  292    3.17021    1.94958  38.5%   419  260s
  1292   737    2.39597  164  238    3.17021    1.94958  38.5%   417  265s
  1344   771    2.72346  190   99    3.17021    1.94958  38.5%   408  270s
  1534   922    2.74212  285  108    3.17021    1.94958  38.5%   360  275s
H 1642   983                       3.1686945    1.95248  38.4%   343  280s
  1696  1034    3.01065   56  103    3.16869    1.95248  38.4%   340  285s
  1791  1089    2.00863   24  377    3.16869    1.95295  38.4%   327  290s
  1821  1119    2.14995   45  325    3.16869    1.95295  38.4%   329  295s

Cutting planes:
  Gomory: 3
  Cover: 1
  Implied bound: 97
  Projected implied bound: 29
  MIR: 115
  Flow cover: 195
  GUB cover: 17
  Zero half: 1
  Mod-K: 2
  Relax-and-lift: 432

Explored 1878 nodes (673545 simplex iterations) in 300.00 seconds
Thread count was 1 (of 4 available processors)

Solution count 10: 3.16869 3.17021 3.17495 ... 3.27426

Time limit reached
Best objective 3.168694452953e+00, best bound 1.952950604850e+00, gap 38.3673%

---------------------------------------------------------------------------
Multi-objectives: stopped in 300.01 seconds, solution count 10
Time Limit reached

